language ESSENCE' 1.0

letting fixed be 
[
    [0,4,5,0,9,3,2,8,1],
    [0,0,0,0,5,0,4,6,9],
    [1,0,0,4,0,2,7,3,5],
    [0,0,0,0,0,6,5,0,0],
    [0,5,0,0,3,8,6,9,0],
    [0,0,0,0,4,5,8,0,0],
    [0,7,0,5,0,0,9,0,6],
    [4,2,0,0,0,0,0,5,8],
    [5,0,0,0,0,0,0,0,7]
]

